c Reduced graph for p32_3 generated by Cyril Grelier
p edge 43 176
v 1 800
v 2 540
v 3 500
v 4 450
v 5 430
v 6 410
v 7 400
v 8 400
v 9 380
v 10 370
v 11 340
v 12 300
v 13 300
v 14 300
v 15 280
v 16 280
v 17 260
v 18 260
v 19 250
v 20 240
v 21 240
v 22 240
v 23 230
v 24 210
v 25 210
v 26 200
v 27 200
v 28 180
v 29 175
v 30 170
v 31 160
v 32 160
v 33 140
v 34 120
v 35 90
v 36 90
v 37 80
v 38 80
v 39 80
v 40 80
v 41 70
v 42 60
v 43 30
e 1 7
e 1 12
e 1 21
e 1 27
e 1 32
e 1 42
e 1 43
e 2 8
e 2 13
e 2 19
e 2 31
e 2 33
e 3 10
e 3 17
e 3 26
e 3 34
e 3 36
e 3 41
e 4 7
e 4 14
e 4 25
e 4 28
e 5 15
e 5 20
e 5 23
e 5 25
e 5 26
e 5 30
e 5 42
e 6 10
e 6 15
e 6 16
e 6 17
e 6 18
e 6 19
e 6 22
e 6 24
e 6 31
e 6 35
e 6 38
e 6 39
e 6 40
e 7 12
e 7 21
e 7 25
e 7 28
e 7 32
e 7 43
e 8 11
e 8 12
e 8 16
e 8 31
e 8 33
e 9 20
e 9 24
e 9 33
e 9 37
e 9 41
e 9 43
e 10 16
e 10 19
e 10 22
e 10 24
e 10 26
e 10 38
e 11 12
e 11 16
e 11 39
e 12 16
e 12 21
e 12 32
e 12 43
e 13 19
e 13 35
e 14 22
e 15 17
e 15 18
e 15 20
e 15 23
e 15 25
e 15 26
e 15 30
e 15 31
e 15 35
e 15 39
e 15 40
e 15 42
e 16 19
e 16 22
e 16 24
e 16 38
e 17 18
e 17 31
e 17 34
e 17 35
e 17 36
e 17 39
e 17 40
e 17 41
e 18 27
e 18 28
e 18 29
e 18 31
e 18 35
e 18 37
e 18 39
e 18 40
e 19 22
e 19 24
e 19 38
e 20 23
e 20 24
e 20 25
e 20 26
e 20 30
e 20 33
e 20 37
e 20 41
e 20 42
e 20 43
e 21 23
e 21 32
e 21 34
e 21 38
e 21 43
e 22 24
e 22 38
e 23 25
e 23 26
e 23 30
e 23 34
e 23 38
e 23 42
e 24 33
e 24 37
e 24 38
e 24 41
e 24 43
e 25 26
e 25 28
e 25 30
e 25 42
e 26 30
e 26 42
e 27 28
e 27 29
e 27 37
e 27 42
e 28 29
e 28 37
e 29 30
e 29 32
e 29 36
e 29 37
e 30 32
e 30 36
e 30 42
e 31 33
e 31 35
e 31 39
e 31 40
e 32 36
e 32 43
e 33 37
e 33 41
e 33 43
e 34 36
e 34 38
e 34 41
e 35 39
e 35 40
e 36 41
e 37 41
e 37 43
e 39 40
e 41 43
